NAME : XML100_1275_20
DIMENSION : 101
NB_CLUSTERS : 3
CLUSTERING_ALG : KMedoids
CLUSTERING_PARAMS : k(2)
CLUSTERS
1 0
2 2 6 9 10 11 14 15 18 19 22 24 25 26 27 28 35 36 37 38 39 41 42 43 44 45 48 49 55 57 60 62 63 64 68 72 74 75 76 78 79 80 83 84 85 86 87 88 91 93 94 98 99
3 1 3 4 5 7 8 12 13 16 17 20 21 23 29 30 31 32 33 34 40 46 47 50 51 52 53 54 56 58 59 61 65 66 67 69 70 71 73 77 81 82 89 90 92 95 96 97 100
EOF